data/solutions/recovery/wellformed/moderate/binding/wellformed_moderate_instance64/50.sol
Elapsed time: 0.03
Upper bound: 4979.0
Planning weighted value: 132923.0
C[0]=4979.0
C[1]=4952.0
C[2]=4759.0
C[3]=4754.0
C[4]=0.0
y[0]=3
y[1]=2
y[2]=0
y[3]=2
y[4]=3
y[5]=3
y[6]=3
y[7]=1
y[8]=0
y[9]=1
y[10]=1
y[11]=1
y[12]=3
y[13]=3
y[14]=0
y[15]=3
y[16]=3
y[17]=0
y[18]=0
y[19]=2
y[20]=1
y[21]=0
y[22]=3
y[23]=2
y[24]=3
y[25]=1
y[26]=2
y[27]=0
y[28]=0
y[29]=0
y[30]=0
y[31]=2
y[32]=3
y[33]=0
y[34]=3
y[35]=1
y[36]=1
y[37]=0
y[38]=2
y[39]=1
y[40]=1
