data/solutions/recovery/wellformed/moderate/binding/wellformed_moderate_instance64/50.log

Log started (V12.6.3.0) Fri Apr 20 17:49:38 2018

New value for default parallel thread count: 1

Problem '/tmp/tmpnTbpmU.pyomo.lp' read.
Read time = 0.00 sec. (0.09 ticks)

Problem name         : /tmp/tmpnTbpmU.pyomo.lp
Objective sense      : Minimize
Variables            :     212  [Nneg: 1,  Binary: 205,  General Integer: 6]
Objective nonzeros   :       1
Linear constraints   :      94  [Less: 46,  Equal: 48]
  Nonzeros           :    6023
  RHS nonzeros       :      42

Variables            : Min LB: 0.000000         Max UB: 1.000000       
Objective nonzeros   : Min   : 1.000000         Max   : 1.000000       
Linear constraints   :
  Nonzeros           : Min   : 1.000000         Max   : 1963.000       
  RHS nonzeros       : Min   : 1.000000         Max   : 1.000000       
Tried aggregator 2 times.
MIP Presolve eliminated 79 rows and 179 columns.
Aggregator did 4 substitutions.
Reduced MIP has 11 rows, 29 columns, and 60 nonzeros.
Reduced MIP has 28 binaries, 1 generals, 0 SOSs, and 0 indicators.
Presolve time = 0.00 sec. (0.49 ticks)
Found incumbent of value 10467.000000 after 0.00 sec. (0.65 ticks)
Probing time = 0.00 sec. (0.01 ticks)
Tried aggregator 1 time.
Reduced MIP has 11 rows, 29 columns, and 60 nonzeros.
Reduced MIP has 28 binaries, 1 generals, 0 SOSs, and 0 indicators.
Presolve time = 0.00 sec. (0.04 ticks)
Probing time = 0.00 sec. (0.01 ticks)
Clique table members: 7.
MIP emphasis: balance optimality and feasibility.
MIP search method: dynamic search.
Parallel mode: none, using 1 thread.
Root relaxation solution time = 0.00 sec. (0.03 ticks)

        Nodes                                         Cuts/
   Node  Left     Objective  IInf  Best Integer    Best Bound    ItCnt     Gap

*     0+    0                        10467.0000     4428.0000            57.70%
      0     0     4861.0000     6    10467.0000     4861.0000       11   53.56%
*     0+    0                         5506.0000     4861.0000            11.71%
      0     0     4861.0000     6     5506.0000       Cuts: 6       23   11.71%
*     0+    0                         5155.0000     4861.0000             5.70%
      0     0     4895.0000     8     5155.0000       Cuts: 8       41    5.04%
*     0+    0                         5029.0000     4895.0000             2.66%
      0     0     4895.0000     4     5029.0000       Cuts: 4       51    2.66%
*     0+    0                         4979.0000     4895.0000             1.69%

Repeating presolve.
Presolve time = 0.00 sec. (0.03 ticks)
Represolve time = 0.00 sec. (0.04 ticks)

Root node processing (before b&c):
  Real time             =    0.00 sec. (1.38 ticks)
Sequential b&c:
  Real time             =    0.00 sec. (0.00 ticks)
                          ------------
Total (root+branch&cut) =    0.00 sec. (1.38 ticks)

Solution pool: 5 solutions saved.

MIP - Integer optimal solution:  Objective =  4.9790000000e+03
Solution time =    0.00 sec.  Iterations = 51  Nodes = 0
Deterministic time = 1.38 ticks  (280.84 ticks/sec)


Incumbent solution written to file '/tmp/tmpDgcZDA.cplex.sol'.

Log started (V12.6.3.0) Fri Apr 20 17:52:42 2018

New value for default parallel thread count: 1

Problem '/tmp/tmpFoP4XM.pyomo.lp' read.
Read time = 0.00 sec. (0.09 ticks)

Problem name         : /tmp/tmpFoP4XM.pyomo.lp
Objective sense      : Minimize
Variables            :     212  [Nneg: 1,  Binary: 205,  General Integer: 6]
Objective nonzeros   :       1
Linear constraints   :      94  [Less: 46,  Equal: 48]
  Nonzeros           :    6023
  RHS nonzeros       :      42

Variables            : Min LB: 0.000000         Max UB: 1.000000       
Objective nonzeros   : Min   : 1.000000         Max   : 1.000000       
Linear constraints   :
  Nonzeros           : Min   : 1.000000         Max   : 1963.000       
  RHS nonzeros       : Min   : 1.000000         Max   : 1.000000       
Tried aggregator 2 times.
MIP Presolve eliminated 79 rows and 179 columns.
Aggregator did 4 substitutions.
Reduced MIP has 11 rows, 29 columns, and 60 nonzeros.
Reduced MIP has 28 binaries, 1 generals, 0 SOSs, and 0 indicators.
Presolve time = 0.00 sec. (0.49 ticks)
Found incumbent of value 10467.000000 after 0.00 sec. (0.65 ticks)
Probing time = 0.00 sec. (0.01 ticks)
Tried aggregator 1 time.
Reduced MIP has 11 rows, 29 columns, and 60 nonzeros.
Reduced MIP has 28 binaries, 1 generals, 0 SOSs, and 0 indicators.
Presolve time = 0.00 sec. (0.04 ticks)
Probing time = 0.00 sec. (0.01 ticks)
Clique table members: 7.
MIP emphasis: balance optimality and feasibility.
MIP search method: dynamic search.
Parallel mode: none, using 1 thread.
Root relaxation solution time = 0.00 sec. (0.03 ticks)

        Nodes                                         Cuts/
   Node  Left     Objective  IInf  Best Integer    Best Bound    ItCnt     Gap

*     0+    0                        10467.0000     4428.0000            57.70%
      0     0     4861.0000     6    10467.0000     4861.0000       11   53.56%
*     0+    0                         5506.0000     4861.0000            11.71%
      0     0     4861.0000     6     5506.0000       Cuts: 6       23   11.71%
*     0+    0                         5155.0000     4861.0000             5.70%
      0     0     4895.0000     8     5155.0000       Cuts: 8       41    5.04%
*     0+    0                         5029.0000     4895.0000             2.66%
      0     0     4895.0000     4     5029.0000       Cuts: 4       51    2.66%
*     0+    0                         4979.0000     4895.0000             1.69%

Repeating presolve.
Presolve time = 0.00 sec. (0.03 ticks)
Represolve time = 0.00 sec. (0.04 ticks)

Root node processing (before b&c):
  Real time             =    0.01 sec. (1.38 ticks)
Sequential b&c:
  Real time             =    0.00 sec. (0.00 ticks)
                          ------------
Total (root+branch&cut) =    0.01 sec. (1.38 ticks)

Solution pool: 5 solutions saved.

MIP - Integer optimal solution:  Objective =  4.9790000000e+03
Solution time =    0.01 sec.  Iterations = 51  Nodes = 0
Deterministic time = 1.38 ticks  (133.14 ticks/sec)


Incumbent solution written to file '/tmp/tmppR4MiK.cplex.sol'.
